(set-info :source  loris-7.ddns.comp.nus.edu.sg/~project/hip/) 
;Variables declarations
(declare-fun nc_5522 () Int)
(declare-fun nd () Int)
(declare-fun nb_5521 () Int)
(declare-fun nc () Int)
(declare-fun a () Int)
(declare-fun b () Int)
(declare-fun c_primed () Int)
(declare-fun c () Int)
(declare-fun d_primed () Int)
(declare-fun d () Int)
(declare-fun flted_36_5533 () Int)
(declare-fun flted_36_5532 () Int)
(declare-fun flted_36_5531 () Int)
(declare-fun flted_36_5530 () Int)
(declare-fun v_int_42_5535 () Int)
(declare-fun v_5541 () Int)
(declare-fun v_int_42_5534 () Int)
(declare-fun l_5542 () Int)
(declare-fun a_primed () Int)
(declare-fun r_5545 () Int)
(declare-fun b_primed () Int)
(declare-fun na () Int)
(declare-fun nb () Int)
(declare-fun bha () Int)
(declare-fun bhr_5547 () Int)
(declare-fun bhl_5544 () Int)
(declare-fun bha_5523 () Int)
(declare-fun na_5520 () Int)
(declare-fun nr_5546 () Int)
(declare-fun nl_5543 () Int)
;Relations declarations
;Axioms assertions
;Antecedent
(assert (= nc_5522 nd))
(assert (= nb_5521 nc))
(assert (= a_primed a))
(assert (= b_primed b))
(assert (= c_primed c))
(assert (= d_primed d))
(assert (= flted_36_5533 0))
(assert (= flted_36_5532 0))
(assert (= flted_36_5531 0))
(assert (= flted_36_5530 0))
(assert (= v_int_42_5534 0))
(assert (= v_int_42_5535 1))
(assert (= v_5541 v_int_42_5534))
(assert (= l_5542 a_primed))
(assert (= r_5545 b_primed))
(assert (= nl_5543 na))
(assert (= bhl_5544 bha))
(assert (= nr_5546 nb))
(assert (= bhr_5547 bha))
(assert (= bhr_5547 bhl_5544))
(assert (= bhr_5547 bha_5523))
(assert (= bhl_5544 bha_5523))
(assert (= na_5520 (+ (+ nr_5546 1) nl_5543)))
;Negation of Consequence
(assert (not false))
(check-sat)